120
1000
200
200
199
198
198
198
197
195
194
194
194
193
193
193
192
192
192
191
191
191
191
190
190
190
189
188
188
188
188
188
187
187
186
185
185
184
184
184
184
183
182
182
181
181
180
180
180
180
179
179
178
178
178
178
177
176
176
176
176
176
174
174
174
173
173
173
173
172
172
172
172
172
171
171
171
171
169
168
167
166
166
166
166
165
165
165
165
165
164
164
164
164
163
163
163
163
162
162
161
161
161
161
161
160
160
159
157
157
157
156
156
154
154
154
153
153
152
150
150
150
